Knapsack
1,4,8,16,
24.0, 288.0, 334.0, 310.0,
92.0, 342.0, 416.0, 701.0,
370.0, 671.0, 659.0, 935.0,
1978.0, 1672.0, 1669.0, 1599.0,
18169.0, 10174.0, 6816.0, 6693.0,
263600.0, 107331.0, 87791.0, 86387.0,
4154505.0, 1707637.0, 1405436.0, 1377047.0